10
      1     791    55449204481
      2     752    52680294142
      3     952    66879834342
      4     452    31380983842
      5     866    60774032056
      6     978    68725774568
      7     935    65672873425
      8     178    11927613768
      9     724    50692358514
     10     387    26766133277
3457